<number of tasks>
89

<cycle time>
110

<task times>
1 28
2 17
3 7
4 10
5 12
6 16
7 13
8 8
9 13
10 24
11 16
12 24
13 12
14 20
15 22
16 22
17 22
18 47
19 6
20 12
21 6
22 22
23 7
24 14
25 68
26 15
27 8
28 74
29 32
30 11
31 18
32 15
33 42
34 27
35 38
36 38
37 26
38 35
39 31
40 8
41 14
42 8
43 8
44 8
45 17
46 7
47 19
48 12
49 24
50 26
51 22
52 14
53 27
54 60
55 4
56 2
57 1
58 9
59 5
60 6
61 7
62 12
63 2
64 11
65 14
66 6
67 21
68 14
69 1
70 6
71 21
72 11
73 14
74 28
75 12
76 11
77 30
78 22
79 14
80 31
81 18
82 16
83 7
84 38
85 8
86 31
87 29
88 12
89 18

<precedence relations>
1,2
2,3
3,4
4,5
4,6
4,7
4,8
4,9
5,10
6,11
7,12
8,18
9,18
10,14
11,12
12,13
13,14
14,15
14,16
15,17
16,54
17,18
18,19
18,20
19,22
20,21
20,28
21,54
22,23
23,24
24,25
25,26
25,27
25,29
26,37
27,33
28,29
29,31
30,54
31,32
32,33
33,34
34,35
35,36
35,37
36,38
37,38
38,39
39,40
39,41
39,42
39,43
40,44
41,53
42,53
43,45
44,52
45,46
46,47
47,48
47,49
49,50
50,51
51,52
52,53
53,68
53,69
53,70
53,71
54,55
55,56
56,57
57,58
57,59
57,60
57,61
57,62
57,63
57,64
57,65
57,66
58,67
59,67
60,67
61,67
62,67
63,67
64,67
65,67
66,67
67,73
68,72
69,72
70,72
71,73
72,78
72,80
73,74
74,75
74,76
75,77
76,81
77,78
78,79
79,81
80,81
81,82
81,84
81,85
82,83
83,86
84,86
85,86
86,87
87,88
87,89

<setup times forward>
4,5:5
4,9:2
5,6:5
5,7:5
5,8:5
5,9:7
5,30:5
6,5:5
6,9:2
6,10:5
6,11:5
7,5:5
7,9:2
7,10:5
7,11:5
7,12:5
8,5:5
8,9:2
8,10:5
8,11:5
8,12:5
8,13:5
8,14:5
8,15:2
8,16:3
8,17:2
8,18:2
9,5:7
9,6:2
9,7:2
9,8:2
9,10:7
9,11:7
9,12:7
9,13:7
9,14:7
9,16:1
9,30:2
10,6:5
10,7:5
10,8:5
10,9:7
10,30:5
11,7:5
11,8:5
11,9:7
11,30:5
12,8:5
12,9:7
12,30:5
13,8:5
13,9:7
13,30:5
14,8:5
14,9:7
14,15:7
14,16:8
14,30:5
15,8:2
15,16:1
15,30:2
16,8:3
16,9:1
16,15:1
16,17:1
16,18:1
16,19:1
16,20:5
16,21:4
16,22:5
16,23:4
16,24:4
16,25:4
16,26:4
16,28:5
16,29:3
16,30:3
16,31:3
16,32:3
16,33:3
16,34:1
16,35:1
16,36:6
16,37:1
16,38:6
16,39:6
16,40:3
16,41:1
16,42:2
16,43:1
16,44:3
16,45:1
16,46:1
16,47:1
16,48:4
16,49:1
16,50:3
16,51:3
16,52:3
16,53:2
16,68:5
16,69:5
16,70:5
16,71:2
16,72:5
16,80:7
17,8:2
17,16:1
17,30:2
18,16:1
18,20:4
18,30:2
19,16:1
19,20:4
19,21:3
19,22:4
19,28:4
19,30:2
19,54:1
19,55:1
19,56:1
19,57:1
19,59:2
19,60:5
19,61:1
19,63:2
19,64:4
19,65:2
19,66:1
19,67:4
20,16:5
20,19:4
20,21:1
20,23:1
20,24:1
20,25:1
20,26:1
20,27:5
20,30:2
21,16:4
21,19:3
21,22:1
21,27:4
21,28:1
21,29:1
21,30:1
21,31:1
21,32:1
21,33:1
21,34:5
21,35:5
21,36:2
21,37:5
21,38:2
21,39:2
21,40:7
21,41:3
21,42:2
21,43:3
21,44:7
21,45:3
21,46:3
21,47:3
21,48:8
21,49:3
21,50:7
21,51:7
21,52:7
21,53:2
21,54:4
21,68:1
21,69:1
21,70:1
21,71:2
21,72:1
21,80:3
22,16:5
22,21:1
22,23:1
22,30:2
22,54:5
22,55:5
22,56:5
22,57:5
22,58:4
22,59:6
22,60:1
22,61:5
22,62:4
22,63:2
22,64:8
22,65:6
22,66:5
22,67:8
23,16:4
23,20:1
23,28:1
23,30:1
23,54:4
23,55:4
23,56:4
23,57:4
23,58:3
23,59:5
23,60:2
23,61:4
23,62:3
23,63:1
23,64:7
23,65:5
23,66:4
23,67:7
24,16:4
24,20:1
24,28:1
24,30:1
24,54:4
24,55:4
24,56:4
24,57:4
24,58:3
24,59:5
24,60:2
24,61:4
24,62:3
24,63:1
24,64:7
24,65:5
24,66:4
24,67:7
25,16:4
25,20:1
25,27:4
25,28:1
25,29:1
25,30:1
25,54:4
25,55:4
25,56:4
25,57:4
25,58:3
25,59:5
25,60:2
25,61:4
25,62:3
25,63:1
25,64:7
25,65:5
25,66:4
25,67:7
26,16:4
26,20:1
26,27:4
26,28:1
26,29:1
26,30:1
26,31:1
26,32:1
26,33:1
26,34:5
26,35:5
26,36:2
26,37:5
26,54:4
26,55:4
26,56:4
26,57:4
26,58:3
26,59:5
26,60:2
26,61:4
26,62:3
26,63:1
26,64:7
26,65:5
26,66:4
26,67:7
27,20:5
27,21:4
27,26:4
27,28:5
27,29:3
27,30:3
27,31:3
27,32:3
27,33:3
27,58:1
27,59:1
27,60:6
27,62:1
27,63:3
27,64:3
27,65:1
27,67:3
28,16:5
28,19:4
28,21:1
28,23:1
28,24:1
28,25:1
28,26:1
28,27:5
28,29:2
28,30:2
28,54:5
28,55:5
28,56:5
28,57:5
28,58:4
28,59:6
28,60:1
28,61:5
28,62:4
28,63:2
28,64:8
28,65:6
28,66:5
28,67:8
29,16:3
29,21:1
29,26:1
29,27:3
29,54:3
29,55:3
29,56:3
29,57:3
29,58:2
29,59:4
29,60:3
29,61:3
29,62:2
29,64:6
29,65:4
29,66:3
29,67:6
30,5:5
30,9:2
30,10:5
30,11:5
30,12:5
30,13:5
30,14:5
30,15:2
30,16:3
30,17:2
30,18:2
30,19:2
30,20:2
30,21:1
30,22:2
30,23:1
30,24:1
30,25:1
30,26:1
30,27:3
30,28:2
30,34:4
30,35:4
30,36:3
30,37:4
30,38:3
30,39:3
30,40:6
30,41:2
30,42:1
30,43:2
30,44:6
30,45:2
30,46:2
30,47:2
30,48:7
30,49:2
30,50:6
30,51:6
30,52:6
30,53:1
30,54:3
30,68:2
30,69:2
30,70:2
30,71:1
30,72:2
30,80:4
31,16:3
31,21:1
31,26:1
31,27:3
31,54:3
31,55:3
31,56:3
31,57:3
31,58:2
31,59:4
31,60:3
31,61:3
31,62:2
31,64:6
31,65:4
31,66:3
31,67:6
32,16:3
32,21:1
32,26:1
32,27:3
32,54:3
32,55:3
32,56:3
32,57:3
32,58:2
32,59:4
32,60:3
32,61:3
32,62:2
32,64:6
32,65:4
32,66:3
32,67:6
33,16:3
33,21:1
33,26:1
33,34:4
33,54:3
33,55:3
33,56:3
33,57:3
33,58:2
33,59:4
33,60:3
33,61:3
33,62:2
33,64:6
33,65:4
33,66:3
33,67:6
34,16:1
34,21:5
34,26:5
34,30:4
34,54:1
34,55:1
34,56:1
34,57:1
34,58:2
34,60:7
34,61:1
34,62:2
34,63:4
34,64:2
34,66:1
34,67:2
35,16:1
35,21:5
35,26:5
35,30:4
35,36:7
35,54:1
35,55:1
35,56:1
35,57:1
35,58:2
35,60:7
35,61:1
35,62:2
35,63:4
35,64:2
35,66:1
35,67:2
36,16:6
36,21:2
36,26:2
36,30:3
36,37:7
36,54:6
36,55:6
36,56:6
36,57:6
36,58:5
36,59:7
36,61:6
36,62:5
36,63:3
36,64:9
36,65:7
36,66:6
36,67:9
37,16:1
37,21:5
37,30:4
37,36:7
37,38:7
37,54:1
37,55:1
37,56:1
37,57:1
37,58:2
37,60:7
37,61:1
37,62:2
37,63:4
37,64:2
37,66:1
37,67:2
38,16:6
38,21:2
38,30:3
38,54:6
38,55:6
38,56:6
38,57:6
38,58:5
38,59:7
38,61:6
38,62:5
38,63:3
38,64:9
38,65:7
38,66:6
38,67:9
39,16:6
39,21:2
39,30:3
39,40:9
39,41:5
39,42:4
39,43:5
39,54:6
39,55:6
39,56:6
39,57:6
39,58:5
39,59:7
39,61:6
39,62:5
39,63:3
39,64:9
39,65:7
39,66:6
39,67:9
40,16:3
40,21:7
40,30:6
40,41:4
40,42:5
40,43:4
40,45:4
40,46:4
40,47:4
40,48:1
40,49:4
40,54:3
40,55:3
40,56:3
40,57:3
40,58:4
40,59:2
40,60:9
40,61:3
40,62:4
40,63:6
40,65:2
40,66:3
41,16:1
41,21:3
41,30:2
41,40:4
41,42:1
41,44:4
41,48:5
41,50:4
41,51:4
41,52:4
41,53:1
41,54:1
41,55:1
41,56:1
41,57:1
41,59:2
41,60:5
41,61:1
41,63:2
41,64:4
41,65:2
41,66:1
41,67:4
42,16:2
42,21:2
42,30:1
42,40:5
42,41:1
42,43:1
42,44:5
42,45:1
42,46:1
42,47:1
42,48:6
42,49:1
42,50:5
42,51:5
42,52:5
42,54:2
42,55:2
42,56:2
42,57:2
42,58:1
42,59:3
42,60:4
42,61:2
42,62:1
42,63:1
42,64:5
42,65:3
42,66:2
42,67:5
43,16:1
43,21:3
43,30:2
43,40:4
43,42:1
43,44:4
43,54:1
43,55:1
43,56:1
43,57:1
43,59:2
43,60:5
43,61:1
43,63:2
43,64:4
43,65:2
43,66:1
43,67:4
44,16:3
44,21:7
44,30:6
44,41:4
44,42:5
44,43:4
44,45:4
44,46:4
44,47:4
44,48:1
44,49:4
44,54:3
44,55:3
44,56:3
44,57:3
44,58:4
44,59:2
44,60:9
44,61:3
44,62:4
44,63:6
44,65:2
44,66:3
45,16:1
45,21:3
45,30:2
45,40:4
45,42:1
45,44:4
45,54:1
45,55:1
45,56:1
45,57:1
45,59:2
45,60:5
45,61:1
45,63:2
45,64:4
45,65:2
45,66:1
45,67:4
46,16:1
46,21:3
46,30:2
46,40:4
46,42:1
46,44:4
46,54:1
46,55:1
46,56:1
46,57:1
46,59:2
46,60:5
46,61:1
46,63:2
46,64:4
46,65:2
46,66:1
46,67:4
47,16:1
47,21:3
47,30:2
47,40:4
47,42:1
47,44:4
47,48:5
47,54:1
47,55:1
47,56:1
47,57:1
47,59:2
47,60:5
47,61:1
47,63:2
47,64:4
47,65:2
47,66:1
47,67:4
48,16:4
48,21:8
48,30:7
48,40:1
48,41:5
48,42:6
48,44:1
48,49:5
48,50:1
48,51:1
48,52:1
48,53:6
48,54:4
48,55:4
48,56:4
48,57:4
48,58:5
48,59:3
48,60:10
48,61:4
48,62:5
48,63:7
48,64:1
48,65:3
48,66:4
48,67:1
48,68:9
48,69:9
48,70:9
48,71:6
48,72:9
48,73:6
48,74:6
48,75:9
48,76:6
48,77:9
48,78:9
48,79:9
48,80:11
48,81:11
48,82:11
48,83:11
48,84:11
49,16:1
49,21:3
49,30:2
49,40:4
49,42:1
49,44:4
49,48:5
49,50:4
49,54:1
49,55:1
49,56:1
49,57:1
49,59:2
49,60:5
49,61:1
49,63:2
49,64:4
49,65:2
49,66:1
49,67:4
50,16:3
50,21:7
50,30:6
50,41:4
50,42:5
50,48:1
50,54:3
50,55:3
50,56:3
50,57:3
50,58:4
50,59:2
50,60:9
50,61:3
50,62:4
50,63:6
50,65:2
50,66:3
51,16:3
51,21:7
51,30:6
51,41:4
51,42:5
51,48:1
51,54:3
51,55:3
51,56:3
51,57:3
51,58:4
51,59:2
51,60:9
51,61:3
51,62:4
51,63:6
51,65:2
51,66:3
52,16:3
52,21:7
52,30:6
52,41:4
52,42:5
52,48:1
52,53:5
52,54:3
52,55:3
52,56:3
52,57:3
52,58:4
52,59:2
52,60:9
52,61:3
52,62:4
52,63:6
52,65:2
52,66:3
53,16:2
53,21:2
53,30:1
53,48:6
53,54:2
53,55:2
53,56:2
53,57:2
53,58:1
53,59:3
53,60:4
53,61:2
53,62:1
53,63:1
53,64:5
53,65:3
53,66:2
53,67:5
53,68:3
53,69:3
53,70:3
54,19:1
54,22:5
54,23:4
54,24:4
54,25:4
54,26:4
54,28:5
54,29:3
54,31:3
54,32:3
54,33:3
54,34:1
54,35:1
54,36:6
54,37:1
54,38:6
54,39:6
54,40:3
54,41:1
54,42:2
54,43:1
54,44:3
54,45:1
54,46:1
54,47:1
54,48:4
54,49:1
54,50:3
54,51:3
54,52:3
54,53:2
54,68:5
54,69:5
54,70:5
54,71:2
54,72:5
54,80:7
55,19:1
55,22:5
55,23:4
55,24:4
55,25:4
55,26:4
55,28:5
55,29:3
55,31:3
55,32:3
55,33:3
55,34:1
55,35:1
55,36:6
55,37:1
55,38:6
55,39:6
55,40:3
55,41:1
55,42:2
55,43:1
55,44:3
55,45:1
55,46:1
55,47:1
55,48:4
55,49:1
55,50:3
55,51:3
55,52:3
55,53:2
55,68:5
55,69:5
55,70:5
55,71:2
55,72:5
55,80:7
56,19:1
56,22:5
56,23:4
56,24:4
56,25:4
56,26:4
56,28:5
56,29:3
56,31:3
56,32:3
56,33:3
56,34:1
56,35:1
56,36:6
56,37:1
56,38:6
56,39:6
56,40:3
56,41:1
56,42:2
56,43:1
56,44:3
56,45:1
56,46:1
56,47:1
56,48:4
56,49:1
56,50:3
56,51:3
56,52:3
56,53:2
56,68:5
56,69:5
56,70:5
56,71:2
56,72:5
56,80:7
57,19:1
57,22:5
57,23:4
57,24:4
57,25:4
57,26:4
57,28:5
57,29:3
57,31:3
57,32:3
57,33:3
57,34:1
57,35:1
57,36:6
57,37:1
57,38:6
57,39:6
57,40:3
57,41:1
57,42:2
57,43:1
57,44:3
57,45:1
57,46:1
57,47:1
57,48:4
57,49:1
57,50:3
57,51:3
57,52:3
57,53:2
57,58:1
57,59:1
57,60:6
57,62:1
57,63:3
57,64:3
57,65:1
57,68:5
57,69:5
57,70:5
57,71:2
57,72:5
57,80:7
58,22:4
58,23:3
58,24:3
58,25:3
58,26:3
58,27:1
58,28:4
58,29:2
58,31:2
58,32:2
58,33:2
58,34:2
58,35:2
58,36:5
58,37:2
58,38:5
58,39:5
58,40:4
58,42:1
58,44:4
58,48:5
58,50:4
58,51:4
58,52:4
58,53:1
58,59:2
58,60:5
58,61:1
58,63:2
58,64:4
58,65:2
58,66:1
58,67:4
58,68:4
58,69:4
58,70:4
58,71:1
58,72:4
58,80:6
59,19:2
59,22:6
59,23:5
59,24:5
59,25:5
59,26:5
59,27:1
59,28:6
59,29:4
59,31:4
59,32:4
59,33:4
59,36:7
59,38:7
59,39:7
59,40:2
59,41:2
59,42:3
59,43:2
59,44:2
59,45:2
59,46:2
59,47:2
59,48:3
59,49:2
59,50:2
59,51:2
59,52:2
59,53:3
59,58:2
59,60:7
59,61:1
59,62:2
59,63:4
59,64:2
59,66:1
59,67:2
59,68:6
59,69:6
59,70:6
59,71:3
59,72:6
59,80:8
60,19:5
60,22:1
60,23:2
60,24:2
60,25:2
60,26:2
60,27:6
60,28:1
60,29:3
60,31:3
60,32:3
60,33:3
60,34:7
60,35:7
60,37:7
60,40:9
60,41:5
60,42:4
60,43:5
60,44:9
60,45:5
60,46:5
60,47:5
60,48:10
60,49:5
60,50:9
60,51:9
60,52:9
60,53:4
60,58:5
60,59:7
60,61:6
60,62:5
60,63:3
60,64:9
60,65:7
60,66:6
60,67:9
60,68:1
60,69:1
60,70:1
60,71:4
60,72:1
60,80:1
61,19:1
61,22:5
61,23:4
61,24:4
61,25:4
61,26:4
61,28:5
61,29:3
61,31:3
61,32:3
61,33:3
61,34:1
61,35:1
61,36:6
61,37:1
61,38:6
61,39:6
61,40:3
61,41:1
61,42:2
61,43:1
61,44:3
61,45:1
61,46:1
61,47:1
61,48:4
61,49:1
61,50:3
61,51:3
61,52:3
61,53:2
61,58:1
61,59:1
61,60:6
61,62:1
61,63:3
61,64:3
61,65:1
61,67:3
61,68:5
61,69:5
61,70:5
61,71:2
61,72:5
61,80:7
62,22:4
62,23:3
62,24:3
62,25:3
62,26:3
62,27:1
62,28:4
62,29:2
62,31:2
62,32:2
62,33:2
62,34:2
62,35:2
62,36:5
62,37:2
62,38:5
62,39:5
62,40:4
62,42:1
62,44:4
62,48:5
62,50:4
62,51:4
62,52:4
62,53:1
62,59:2
62,60:5
62,61:1
62,63:2
62,64:4
62,65:2
62,66:1
62,67:4
62,68:4
62,69:4
62,70:4
62,71:1
62,72:4
62,80:6
63,19:2
63,22:2
63,23:1
63,24:1
63,25:1
63,26:1
63,27:3
63,28:2
63,34:4
63,35:4
63,36:3
63,37:4
63,38:3
63,39:3
63,40:6
63,41:2
63,42:1
63,43:2
63,44:6
63,45:2
63,46:2
63,47:2
63,48:7
63,49:2
63,50:6
63,51:6
63,52:6
63,53:1
63,58:2
63,59:4
63,60:3
63,61:3
63,62:2
63,64:6
63,65:4
63,66:3
63,67:6
63,68:2
63,69:2
63,70:2
63,71:1
63,72:2
63,80:4
64,19:4
64,22:8
64,23:7
64,24:7
64,25:7
64,26:7
64,27:3
64,28:8
64,29:6
64,31:6
64,32:6
64,33:6
64,34:2
64,35:2
64,36:9
64,37:2
64,38:9
64,39:9
64,41:4
64,42:5
64,43:4
64,45:4
64,46:4
64,47:4
64,48:1
64,49:4
64,53:5
64,58:4
64,59:2
64,60:9
64,61:3
64,62:4
64,63:6
64,65:2
64,66:3
64,68:8
64,69:8
64,70:8
64,71:5
64,72:8
64,80:10
65,19:2
65,22:6
65,23:5
65,24:5
65,25:5
65,26:5
65,27:1
65,28:6
65,29:4
65,31:4
65,32:4
65,33:4
65,36:7
65,38:7
65,39:7
65,40:2
65,41:2
65,42:3
65,43:2
65,44:2
65,45:2
65,46:2
65,47:2
65,48:3
65,49:2
65,50:2
65,51:2
65,52:2
65,53:3
65,58:2
65,60:7
65,61:1
65,62:2
65,63:4
65,64:2
65,66:1
65,67:2
65,68:6
65,69:6
65,70:6
65,71:3
65,72:6
65,80:8
66,19:1
66,22:5
66,23:4
66,24:4
66,25:4
66,26:4
66,28:5
66,29:3
66,31:3
66,32:3
66,33:3
66,34:1
66,35:1
66,36:6
66,37:1
66,38:6
66,39:6
66,40:3
66,41:1
66,42:2
66,43:1
66,44:3
66,45:1
66,46:1
66,47:1
66,48:4
66,49:1
66,50:3
66,51:3
66,52:3
66,53:2
66,58:1
66,59:1
66,60:6
66,62:1
66,63:3
66,64:3
66,65:1
66,67:3
66,68:5
66,69:5
66,70:5
66,71:2
66,72:5
66,80:7
67,19:4
67,22:8
67,23:7
67,24:7
67,25:7
67,26:7
67,27:3
67,28:8
67,29:6
67,31:6
67,32:6
67,33:6
67,34:2
67,35:2
67,36:9
67,37:2
67,38:9
67,39:9
67,41:4
67,42:5
67,43:4
67,45:4
67,46:4
67,47:4
67,48:1
67,49:4
67,53:5
67,68:8
67,69:8
67,70:8
67,71:5
67,72:8
67,73:5
67,80:10
68,16:5
68,21:1
68,30:2
68,48:9
68,54:5
68,55:5
68,56:5
68,57:5
68,58:4
68,59:6
68,60:1
68,61:5
68,62:4
68,63:2
68,64:8
68,65:6
68,66:5
68,67:8
68,71:3
68,73:3
68,74:3
68,76:3
69,16:5
69,21:1
69,30:2
69,48:9
69,54:5
69,55:5
69,56:5
69,57:5
69,58:4
69,59:6
69,60:1
69,61:5
69,62:4
69,63:2
69,64:8
69,65:6
69,66:5
69,67:8
69,71:3
69,73:3
69,74:3
69,76:3
70,16:5
70,21:1
70,30:2
70,48:9
70,54:5
70,55:5
70,56:5
70,57:5
70,58:4
70,59:6
70,60:1
70,61:5
70,62:4
70,63:2
70,64:8
70,65:6
70,66:5
70,67:8
70,71:3
70,73:3
70,74:3
70,76:3
71,16:2
71,21:2
71,30:1
71,48:6
71,54:2
71,55:2
71,56:2
71,57:2
71,58:1
71,59:3
71,60:4
71,61:2
71,62:1
71,63:1
71,64:5
71,65:3
71,66:2
71,67:5
71,68:3
71,69:3
71,70:3
71,72:3
71,80:5
72,16:5
72,21:1
72,30:2
72,48:9
72,54:5
72,55:5
72,56:5
72,57:5
72,58:4
72,59:6
72,60:1
72,61:5
72,62:4
72,63:2
72,64:8
72,65:6
72,66:5
72,67:8
72,71:3
72,73:3
72,74:3
72,76:3
72,80:2
73,48:6
73,68:3
73,69:3
73,70:3
73,72:3
73,80:5
74,48:6
74,68:3
74,69:3
74,70:3
74,72:3
74,75:3
74,80:5
75,48:9
75,76:3
75,80:2
76,48:6
76,68:3
76,69:3
76,70:3
76,72:3
76,75:3
76,77:3
76,78:3
76,79:3
76,80:5
76,81:5
77,48:9
77,76:3
77,80:2
78,48:9
78,76:3
78,80:2
79,48:9
79,76:3
79,80:2
79,81:2
80,16:7
80,21:3
80,30:4
80,48:11
80,54:7
80,55:7
80,56:7
80,57:7
80,58:6
80,59:8
80,60:1
80,61:7
80,62:6
80,63:4
80,64:10
80,65:8
80,66:7
80,67:10
80,71:5
80,73:5
80,74:5
80,75:2
80,76:5
80,77:2
80,78:2
80,79:2
81,48:11
81,85:11
82,48:11
82,85:11
83,48:11
83,85:11
83,86:11
84,48:11
84,85:11
84,86:11
85,82:11
85,83:11
85,84:11

<setup times backward>
5,1:5
5,2:5
5,3:5
5,4:5
5,6:5
5,7:5
5,8:5
5,9:7
5,30:5
6,9:2
7,9:2
8,9:2
8,15:2
8,16:3
8,17:2
9,16:1
10,1:5
10,2:5
10,3:5
10,4:5
10,6:5
10,7:5
10,8:5
10,9:7
10,30:5
11,1:5
11,2:5
11,3:5
11,4:5
11,6:5
11,7:5
11,8:5
11,9:7
11,30:5
12,1:5
12,2:5
12,3:5
12,4:5
12,6:5
12,7:5
12,8:5
12,9:7
12,30:5
13,1:5
13,2:5
13,3:5
13,4:5
13,6:5
13,7:5
13,8:5
13,9:7
13,30:5
14,1:5
14,2:5
14,3:5
14,4:5
14,6:5
14,7:5
14,8:5
14,9:7
14,30:5
15,16:1
16,34:1
16,35:1
16,37:1
16,40:3
16,44:3
16,48:4
16,50:3
16,51:3
16,52:3
17,16:1
18,16:1
19,16:1
19,54:1
19,55:1
19,56:1
19,57:1
19,59:2
19,61:1
19,64:4
19,65:2
19,66:1
19,67:4
20,1:2
20,2:2
20,3:2
20,4:2
20,6:2
20,7:2
20,8:2
20,9:4
20,15:4
20,16:5
20,17:4
20,18:4
20,19:4
20,23:1
20,24:1
20,25:1
20,26:1
20,27:5
20,30:2
21,1:1
21,2:1
21,3:1
21,4:1
21,6:1
21,7:1
21,8:1
21,9:3
21,15:3
21,16:4
21,17:3
21,18:3
21,19:3
21,27:4
21,29:1
21,30:1
21,31:1
21,32:1
21,33:1
21,34:5
21,35:5
21,37:5
21,40:7
21,41:3
21,42:2
21,43:3
21,44:7
21,45:3
21,46:3
21,47:3
21,48:8
21,49:3
21,50:7
21,51:7
21,52:7
21,53:2
21,71:2
22,1:2
22,2:2
22,3:2
22,4:2
22,6:2
22,7:2
22,8:2
22,9:4
22,15:4
22,16:5
22,17:4
22,18:4
22,19:4
22,21:1
22,30:2
22,54:5
22,55:5
22,56:5
22,57:5
22,58:4
22,59:6
22,61:5
22,62:4
22,63:2
22,64:8
22,65:6
22,66:5
22,67:8
23,1:1
23,2:1
23,3:1
23,4:1
23,6:1
23,7:1
23,8:1
23,9:3
23,15:3
23,16:4
23,17:3
23,18:3
23,19:3
23,30:1
23,54:4
23,55:4
23,56:4
23,57:4
23,58:3
23,59:5
23,61:4
23,62:3
23,63:1
23,64:7
23,65:5
23,66:4
23,67:7
24,1:1
24,2:1
24,3:1
24,4:1
24,6:1
24,7:1
24,8:1
24,9:3
24,15:3
24,16:4
24,17:3
24,18:3
24,19:3
24,30:1
24,54:4
24,55:4
24,56:4
24,57:4
24,58:3
24,59:5
24,61:4
24,62:3
24,63:1
24,64:7
24,65:5
24,66:4
24,67:7
25,1:1
25,2:1
25,3:1
25,4:1
25,6:1
25,7:1
25,8:1
25,9:3
25,15:3
25,16:4
25,17:3
25,18:3
25,19:3
25,30:1
25,54:4
25,55:4
25,56:4
25,57:4
25,58:3
25,59:5
25,61:4
25,62:3
25,63:1
25,64:7
25,65:5
25,66:4
25,67:7
26,1:1
26,2:1
26,3:1
26,4:1
26,6:1
26,7:1
26,8:1
26,9:3
26,15:3
26,16:4
26,17:3
26,18:3
26,19:3
26,27:4
26,29:1
26,30:1
26,31:1
26,32:1
26,33:1
26,34:5
26,35:5
26,54:4
26,55:4
26,56:4
26,57:4
26,58:3
26,59:5
26,61:4
26,62:3
26,63:1
26,64:7
26,65:5
26,66:4
26,67:7
27,59:1
27,64:3
27,65:1
27,67:3
28,1:2
28,2:2
28,3:2
28,4:2
28,6:2
28,7:2
28,8:2
28,9:4
28,15:4
28,16:5
28,17:4
28,18:4
28,19:4
28,21:1
28,23:1
28,24:1
28,25:1
28,26:1
28,27:5
28,30:2
28,54:5
28,55:5
28,56:5
28,57:5
28,58:4
28,59:6
28,61:5
28,62:4
28,63:2
28,64:8
28,65:6
28,66:5
28,67:8
29,9:2
29,15:2
29,16:3
29,17:2
29,18:2
29,19:2
29,27:3
29,54:3
29,55:3
29,56:3
29,57:3
29,58:2
29,59:4
29,61:3
29,62:2
29,64:6
29,65:4
29,66:3
29,67:6
30,9:2
30,15:2
30,16:3
30,17:2
30,18:2
30,19:2
30,27:3
30,34:4
30,35:4
30,37:4
30,40:6
30,41:2
30,42:1
30,43:2
30,44:6
30,45:2
30,46:2
30,47:2
30,48:7
30,49:2
30,50:6
30,51:6
30,52:6
30,53:1
30,71:1
31,9:2
31,15:2
31,16:3
31,17:2
31,18:2
31,19:2
31,27:3
31,54:3
31,55:3
31,56:3
31,57:3
31,58:2
31,59:4
31,61:3
31,62:2
31,64:6
31,65:4
31,66:3
31,67:6
32,9:2
32,15:2
32,16:3
32,17:2
32,18:2
32,19:2
32,27:3
32,54:3
32,55:3
32,56:3
32,57:3
32,58:2
32,59:4
32,61:3
32,62:2
32,64:6
32,65:4
32,66:3
32,67:6
33,9:2
33,15:2
33,16:3
33,17:2
33,18:2
33,19:2
33,27:3
33,54:3
33,55:3
33,56:3
33,57:3
33,58:2
33,59:4
33,61:3
33,62:2
33,64:6
33,65:4
33,66:3
33,67:6
34,64:2
34,67:2
35,64:2
35,67:2
36,1:3
36,2:3
36,3:3
36,4:3
36,6:3
36,7:3
36,8:3
36,9:5
36,15:5
36,16:6
36,17:5
36,18:5
36,19:5
36,20:1
36,21:2
36,22:1
36,23:2
36,24:2
36,25:2
36,26:2
36,27:6
36,28:1
36,29:3
36,30:3
36,31:3
36,32:3
36,33:3
36,34:7
36,35:7
36,37:7
36,54:6
36,55:6
36,56:6
36,57:6
36,58:5
36,59:7
36,61:6
36,62:5
36,63:3
36,64:9
36,65:7
36,66:6
36,67:9
37,64:2
37,67:2
38,1:3
38,2:3
38,3:3
38,4:3
38,6:3
38,7:3
38,8:3
38,9:5
38,15:5
38,16:6
38,17:5
38,18:5
38,19:5
38,20:1
38,21:2
38,22:1
38,23:2
38,24:2
38,25:2
38,26:2
38,27:6
38,28:1
38,29:3
38,30:3
38,31:3
38,32:3
38,33:3
38,34:7
38,35:7
38,37:7
38,54:6
38,55:6
38,56:6
38,57:6
38,58:5
38,59:7
38,61:6
38,62:5
38,63:3
38,64:9
38,65:7
38,66:6
38,67:9
39,1:3
39,2:3
39,3:3
39,4:3
39,6:3
39,7:3
39,8:3
39,9:5
39,15:5
39,16:6
39,17:5
39,18:5
39,19:5
39,20:1
39,21:2
39,22:1
39,23:2
39,24:2
39,25:2
39,26:2
39,27:6
39,28:1
39,29:3
39,30:3
39,31:3
39,32:3
39,33:3
39,34:7
39,35:7
39,37:7
39,54:6
39,55:6
39,56:6
39,57:6
39,58:5
39,59:7
39,61:6
39,62:5
39,63:3
39,64:9
39,65:7
39,66:6
39,67:9
40,48:1
41,16:1
41,27:1
41,34:2
41,35:2
41,37:2
41,40:4
41,44:4
41,48:5
41,50:4
41,51:4
41,52:4
41,54:1
41,55:1
41,56:1
41,57:1
41,59:2
41,61:1
41,64:4
41,65:2
41,66:1
41,67:4
42,9:1
42,15:1
42,16:2
42,17:1
42,18:1
42,19:1
42,27:2
42,34:3
42,35:3
42,37:3
42,40:5
42,41:1
42,43:1
42,44:5
42,45:1
42,46:1
42,47:1
42,48:6
42,49:1
42,50:5
42,51:5
42,52:5
42,54:2
42,55:2
42,56:2
42,57:2
42,58:1
42,59:3
42,61:2
42,62:1
42,64:5
42,65:3
42,66:2
42,67:5
43,16:1
43,27:1
43,34:2
43,35:2
43,37:2
43,40:4
43,44:4
43,54:1
43,55:1
43,56:1
43,57:1
43,59:2
43,61:1
43,64:4
43,65:2
43,66:1
43,67:4
44,48:1
45,16:1
45,27:1
45,34:2
45,35:2
45,37:2
45,40:4
45,44:4
45,54:1
45,55:1
45,56:1
45,57:1
45,59:2
45,61:1
45,64:4
45,65:2
45,66:1
45,67:4
46,16:1
46,27:1
46,34:2
46,35:2
46,37:2
46,40:4
46,44:4
46,54:1
46,55:1
46,56:1
46,57:1
46,59:2
46,61:1
46,64:4
46,65:2
46,66:1
46,67:4
47,16:1
47,27:1
47,34:2
47,35:2
47,37:2
47,40:4
47,44:4
47,54:1
47,55:1
47,56:1
47,57:1
47,59:2
47,61:1
47,64:4
47,65:2
47,66:1
47,67:4
49,16:1
49,27:1
49,34:2
49,35:2
49,37:2
49,40:4
49,44:4
49,48:5
49,54:1
49,55:1
49,56:1
49,57:1
49,59:2
49,61:1
49,64:4
49,65:2
49,66:1
49,67:4
50,48:1
51,48:1
52,48:1
53,9:1
53,15:1
53,16:2
53,17:1
53,18:1
53,19:1
53,27:2
53,34:3
53,35:3
53,37:3
53,40:5
53,41:1
53,43:1
53,44:5
53,45:1
53,46:1
53,47:1
53,48:6
53,49:1
53,50:5
53,51:5
53,52:5
53,54:2
53,55:2
53,56:2
53,57:2
53,58:1
53,59:3
53,61:2
53,62:1
53,64:5
53,65:3
53,66:2
53,67:5
54,34:1
54,35:1
54,37:1
54,40:3
54,44:3
54,48:4
54,50:3
54,51:3
54,52:3
55,34:1
55,35:1
55,37:1
55,40:3
55,44:3
55,48:4
55,50:3
55,51:3
55,52:3
56,34:1
56,35:1
56,37:1
56,40:3
56,44:3
56,48:4
56,50:3
56,51:3
56,52:3
57,34:1
57,35:1
57,37:1
57,40:3
57,44:3
57,48:4
57,50:3
57,51:3
57,52:3
58,16:1
58,27:1
58,34:2
58,35:2
58,37:2
58,40:4
58,44:4
58,48:5
58,50:4
58,51:4
58,52:4
58,54:1
58,55:1
58,56:1
58,57:1
58,59:2
58,61:1
58,64:4
58,65:2
58,66:1
59,40:2
59,44:2
59,48:3
59,50:2
59,51:2
59,52:2
59,64:2
60,1:3
60,2:3
60,3:3
60,4:3
60,6:3
60,7:3
60,8:3
60,9:5
60,15:5
60,16:6
60,17:5
60,18:5
60,19:5
60,20:1
60,21:2
60,22:1
60,23:2
60,24:2
60,25:2
60,26:2
60,27:6
60,28:1
60,29:3
60,30:3
60,31:3
60,32:3
60,33:3
60,34:7
60,35:7
60,37:7
60,40:9
60,41:5
60,42:4
60,43:5
60,44:9
60,45:5
60,46:5
60,47:5
60,48:10
60,49:5
60,50:9
60,51:9
60,52:9
60,53:4
60,54:6
60,55:6
60,56:6
60,57:6
60,58:5
60,59:7
60,61:6
60,62:5
60,63:3
60,64:9
60,65:7
60,66:6
60,68:1
60,69:1
60,70:1
60,71:4
60,72:1
61,34:1
61,35:1
61,37:1
61,40:3
61,44:3
61,48:4
61,50:3
61,51:3
61,52:3
61,59:1
61,64:3
61,65:1
62,16:1
62,27:1
62,34:2
62,35:2
62,37:2
62,40:4
62,44:4
62,48:5
62,50:4
62,51:4
62,52:4
62,54:1
62,55:1
62,56:1
62,57:1
62,59:2
62,61:1
62,64:4
62,65:2
62,66:1
63,9:2
63,15:2
63,16:3
63,17:2
63,18:2
63,19:2
63,27:3
63,34:4
63,35:4
63,37:4
63,40:6
63,41:2
63,42:1
63,43:2
63,44:6
63,45:2
63,46:2
63,47:2
63,48:7
63,49:2
63,50:6
63,51:6
63,52:6
63,53:1
63,54:3
63,55:3
63,56:3
63,57:3
63,58:2
63,59:4
63,61:3
63,62:2
63,64:6
63,65:4
63,66:3
63,71:1
64,48:1
65,40:2
65,44:2
65,48:3
65,50:2
65,51:2
65,52:2
65,64:2
66,34:1
66,35:1
66,37:1
66,40:3
66,44:3
66,48:4
66,50:3
66,51:3
66,52:3
66,59:1
66,64:3
66,65:1
67,48:1
68,1:2
68,2:2
68,3:2
68,4:2
68,6:2
68,7:2
68,8:2
68,9:4
68,15:4
68,16:5
68,17:4
68,18:4
68,19:4
68,21:1
68,23:1
68,24:1
68,25:1
68,26:1
68,27:5
68,29:2
68,30:2
68,31:2
68,32:2
68,33:2
68,34:6
68,35:6
68,37:6
68,40:8
68,41:4
68,42:3
68,43:4
68,44:8
68,45:4
68,46:4
68,47:4
68,48:9
68,49:4
68,50:8
68,51:8
68,52:8
68,53:3
68,54:5
68,55:5
68,56:5
68,57:5
68,58:4
68,59:6
68,61:5
68,62:4
68,63:2
68,64:8
68,65:6
68,66:5
68,67:8
68,71:3
68,73:3
68,74:3
68,76:3
69,1:2
69,2:2
69,3:2
69,4:2
69,6:2
69,7:2
69,8:2
69,9:4
69,15:4
69,16:5
69,17:4
69,18:4
69,19:4
69,21:1
69,23:1
69,24:1
69,25:1
69,26:1
69,27:5
69,29:2
69,30:2
69,31:2
69,32:2
69,33:2
69,34:6
69,35:6
69,37:6
69,40:8
69,41:4
69,42:3
69,43:4
69,44:8
69,45:4
69,46:4
69,47:4
69,48:9
69,49:4
69,50:8
69,51:8
69,52:8
69,53:3
69,54:5
69,55:5
69,56:5
69,57:5
69,58:4
69,59:6
69,61:5
69,62:4
69,63:2
69,64:8
69,65:6
69,66:5
69,67:8
69,71:3
69,73:3
69,74:3
69,76:3
70,1:2
70,2:2
70,3:2
70,4:2
70,6:2
70,7:2
70,8:2
70,9:4
70,15:4
70,16:5
70,17:4
70,18:4
70,19:4
70,21:1
70,23:1
70,24:1
70,25:1
70,26:1
70,27:5
70,29:2
70,30:2
70,31:2
70,32:2
70,33:2
70,34:6
70,35:6
70,37:6
70,40:8
70,41:4
70,42:3
70,43:4
70,44:8
70,45:4
70,46:4
70,47:4
70,48:9
70,49:4
70,50:8
70,51:8
70,52:8
70,53:3
70,54:5
70,55:5
70,56:5
70,57:5
70,58:4
70,59:6
70,61:5
70,62:4
70,63:2
70,64:8
70,65:6
70,66:5
70,67:8
70,71:3
70,73:3
70,74:3
70,76:3
71,9:1
71,15:1
71,16:2
71,17:1
71,18:1
71,19:1
71,27:2
71,34:3
71,35:3
71,37:3
71,40:5
71,41:1
71,43:1
71,44:5
71,45:1
71,46:1
71,47:1
71,48:6
71,49:1
71,50:5
71,51:5
71,52:5
71,54:2
71,55:2
71,56:2
71,57:2
71,58:1
71,59:3
71,61:2
71,62:1
71,64:5
71,65:3
71,66:2
71,67:5
72,1:2
72,2:2
72,3:2
72,4:2
72,6:2
72,7:2
72,8:2
72,9:4
72,15:4
72,16:5
72,17:4
72,18:4
72,19:4
72,21:1
72,23:1
72,24:1
72,25:1
72,26:1
72,27:5
72,29:2
72,30:2
72,31:2
72,32:2
72,33:2
72,34:6
72,35:6
72,37:6
72,40:8
72,41:4
72,42:3
72,43:4
72,44:8
72,45:4
72,46:4
72,47:4
72,48:9
72,49:4
72,50:8
72,51:8
72,52:8
72,53:3
72,54:5
72,55:5
72,56:5
72,57:5
72,58:4
72,59:6
72,61:5
72,62:4
72,63:2
72,64:8
72,65:6
72,66:5
72,67:8
72,71:3
72,73:3
72,74:3
72,76:3
73,9:1
73,15:1
73,16:2
73,17:1
73,18:1
73,19:1
73,27:2
73,34:3
73,35:3
73,37:3
73,40:5
73,41:1
73,43:1
73,44:5
73,45:1
73,46:1
73,47:1
73,48:6
73,49:1
73,50:5
73,51:5
73,52:5
73,54:2
73,55:2
73,56:2
73,57:2
73,58:1
73,59:3
73,61:2
73,62:1
73,64:5
73,65:3
73,66:2
73,67:5
74,9:1
74,15:1
74,16:2
74,17:1
74,18:1
74,19:1
74,27:2
74,34:3
74,35:3
74,37:3
74,40:5
74,41:1
74,43:1
74,44:5
74,45:1
74,46:1
74,47:1
74,48:6
74,49:1
74,50:5
74,51:5
74,52:5
74,54:2
74,55:2
74,56:2
74,57:2
74,58:1
74,59:3
74,61:2
74,62:1
74,64:5
74,65:3
74,66:2
74,67:5
75,1:2
75,2:2
75,3:2
75,4:2
75,6:2
75,7:2
75,8:2
75,9:4
75,15:4
75,16:5
75,17:4
75,18:4
75,19:4
75,21:1
75,23:1
75,24:1
75,25:1
75,26:1
75,27:5
75,29:2
75,30:2
75,31:2
75,32:2
75,33:2
75,34:6
75,35:6
75,37:6
75,40:8
75,41:4
75,42:3
75,43:4
75,44:8
75,45:4
75,46:4
75,47:4
75,48:9
75,49:4
75,50:8
75,51:8
75,52:8
75,53:3
75,54:5
75,55:5
75,56:5
75,57:5
75,58:4
75,59:6
75,61:5
75,62:4
75,63:2
75,64:8
75,65:6
75,66:5
75,67:8
75,71:3
75,73:3
75,74:3
75,76:3
76,9:1
76,15:1
76,16:2
76,17:1
76,18:1
76,19:1
76,27:2
76,34:3
76,35:3
76,37:3
76,40:5
76,41:1
76,43:1
76,44:5
76,45:1
76,46:1
76,47:1
76,48:6
76,49:1
76,50:5
76,51:5
76,52:5
76,54:2
76,55:2
76,56:2
76,57:2
76,58:1
76,59:3
76,61:2
76,62:1
76,64:5
76,65:3
76,66:2
76,67:5
77,1:2
77,2:2
77,3:2
77,4:2
77,6:2
77,7:2
77,8:2
77,9:4
77,15:4
77,16:5
77,17:4
77,18:4
77,19:4
77,21:1
77,23:1
77,24:1
77,25:1
77,26:1
77,27:5
77,29:2
77,30:2
77,31:2
77,32:2
77,33:2
77,34:6
77,35:6
77,37:6
77,40:8
77,41:4
77,42:3
77,43:4
77,44:8
77,45:4
77,46:4
77,47:4
77,48:9
77,49:4
77,50:8
77,51:8
77,52:8
77,53:3
77,54:5
77,55:5
77,56:5
77,57:5
77,58:4
77,59:6
77,61:5
77,62:4
77,63:2
77,64:8
77,65:6
77,66:5
77,67:8
77,71:3
77,73:3
77,74:3
77,76:3
78,1:2
78,2:2
78,3:2
78,4:2
78,6:2
78,7:2
78,8:2
78,9:4
78,15:4
78,16:5
78,17:4
78,18:4
78,19:4
78,21:1
78,23:1
78,24:1
78,25:1
78,26:1
78,27:5
78,29:2
78,30:2
78,31:2
78,32:2
78,33:2
78,34:6
78,35:6
78,37:6
78,40:8
78,41:4
78,42:3
78,43:4
78,44:8
78,45:4
78,46:4
78,47:4
78,48:9
78,49:4
78,50:8
78,51:8
78,52:8
78,53:3
78,54:5
78,55:5
78,56:5
78,57:5
78,58:4
78,59:6
78,61:5
78,62:4
78,63:2
78,64:8
78,65:6
78,66:5
78,67:8
78,71:3
78,73:3
78,74:3
78,76:3
79,1:2
79,2:2
79,3:2
79,4:2
79,6:2
79,7:2
79,8:2
79,9:4
79,15:4
79,16:5
79,17:4
79,18:4
79,19:4
79,21:1
79,23:1
79,24:1
79,25:1
79,26:1
79,27:5
79,29:2
79,30:2
79,31:2
79,32:2
79,33:2
79,34:6
79,35:6
79,37:6
79,40:8
79,41:4
79,42:3
79,43:4
79,44:8
79,45:4
79,46:4
79,47:4
79,48:9
79,49:4
79,50:8
79,51:8
79,52:8
79,53:3
79,54:5
79,55:5
79,56:5
79,57:5
79,58:4
79,59:6
79,61:5
79,62:4
79,63:2
79,64:8
79,65:6
79,66:5
79,67:8
79,71:3
79,73:3
79,74:3
79,76:3
80,1:4
80,2:4
80,3:4
80,4:4
80,6:4
80,7:4
80,8:4
80,9:6
80,15:6
80,16:7
80,17:6
80,18:6
80,19:6
80,20:2
80,21:3
80,22:2
80,23:3
80,24:3
80,25:3
80,26:3
80,27:7
80,28:2
80,29:4
80,30:4
80,31:4
80,32:4
80,33:4
80,34:8
80,35:8
80,36:1
80,37:8
80,38:1
80,39:1
80,40:10
80,41:6
80,42:5
80,43:6
80,44:10
80,45:6
80,46:6
80,47:6
80,48:11
80,49:6
80,50:10
80,51:10
80,52:10
80,53:5
80,54:7
80,55:7
80,56:7
80,57:7
80,58:6
80,59:8
80,60:1
80,61:7
80,62:6
80,63:4
80,64:10
80,65:8
80,66:7
80,67:10
80,68:2
80,69:2
80,70:2
80,71:5
80,72:2
80,73:5
80,74:5
80,75:2
80,76:5
80,77:2
80,78:2
80,79:2
81,1:4
81,2:4
81,3:4
81,4:4
81,6:4
81,7:4
81,8:4
81,9:6
81,15:6
81,16:7
81,17:6
81,18:6
81,19:6
81,20:2
81,21:3
81,22:2
81,23:3
81,24:3
81,25:3
81,26:3
81,27:7
81,28:2
81,29:4
81,30:4
81,31:4
81,32:4
81,33:4
81,34:8
81,35:8
81,36:1
81,37:8
81,38:1
81,39:1
81,40:10
81,41:6
81,42:5
81,43:6
81,44:10
81,45:6
81,46:6
81,47:6
81,48:11
81,49:6
81,50:10
81,51:10
81,52:10
81,53:5
81,54:7
81,55:7
81,56:7
81,57:7
81,58:6
81,59:8
81,60:1
81,61:7
81,62:6
81,63:4
81,64:10
81,65:8
81,66:7
81,67:10
81,68:2
81,69:2
81,70:2
81,71:5
81,72:2
81,73:5
81,74:5
81,75:2
81,76:5
81,77:2
81,78:2
81,79:2
82,1:4
82,2:4
82,3:4
82,4:4
82,6:4
82,7:4
82,8:4
82,9:6
82,15:6
82,16:7
82,17:6
82,18:6
82,19:6
82,20:2
82,21:3
82,22:2
82,23:3
82,24:3
82,25:3
82,26:3
82,27:7
82,28:2
82,29:4
82,30:4
82,31:4
82,32:4
82,33:4
82,34:8
82,35:8
82,36:1
82,37:8
82,38:1
82,39:1
82,40:10
82,41:6
82,42:5
82,43:6
82,44:10
82,45:6
82,46:6
82,47:6
82,48:11
82,49:6
82,50:10
82,51:10
82,52:10
82,53:5
82,54:7
82,55:7
82,56:7
82,57:7
82,58:6
82,59:8
82,60:1
82,61:7
82,62:6
82,63:4
82,64:10
82,65:8
82,66:7
82,67:10
82,68:2
82,69:2
82,70:2
82,71:5
82,72:2
82,73:5
82,74:5
82,75:2
82,76:5
82,77:2
82,78:2
82,79:2
82,85:11
83,1:4
83,2:4
83,3:4
83,4:4
83,6:4
83,7:4
83,8:4
83,9:6
83,15:6
83,16:7
83,17:6
83,18:6
83,19:6
83,20:2
83,21:3
83,22:2
83,23:3
83,24:3
83,25:3
83,26:3
83,27:7
83,28:2
83,29:4
83,30:4
83,31:4
83,32:4
83,33:4
83,34:8
83,35:8
83,36:1
83,37:8
83,38:1
83,39:1
83,40:10
83,41:6
83,42:5
83,43:6
83,44:10
83,45:6
83,46:6
83,47:6
83,48:11
83,49:6
83,50:10
83,51:10
83,52:10
83,53:5
83,54:7
83,55:7
83,56:7
83,57:7
83,58:6
83,59:8
83,60:1
83,61:7
83,62:6
83,63:4
83,64:10
83,65:8
83,66:7
83,67:10
83,68:2
83,69:2
83,70:2
83,71:5
83,72:2
83,73:5
83,74:5
83,75:2
83,76:5
83,77:2
83,78:2
83,79:2
83,85:11
84,1:4
84,2:4
84,3:4
84,4:4
84,6:4
84,7:4
84,8:4
84,9:6
84,15:6
84,16:7
84,17:6
84,18:6
84,19:6
84,20:2
84,21:3
84,22:2
84,23:3
84,24:3
84,25:3
84,26:3
84,27:7
84,28:2
84,29:4
84,30:4
84,31:4
84,32:4
84,33:4
84,34:8
84,35:8
84,36:1
84,37:8
84,38:1
84,39:1
84,40:10
84,41:6
84,42:5
84,43:6
84,44:10
84,45:6
84,46:6
84,47:6
84,48:11
84,49:6
84,50:10
84,51:10
84,52:10
84,53:5
84,54:7
84,55:7
84,56:7
84,57:7
84,58:6
84,59:8
84,60:1
84,61:7
84,62:6
84,63:4
84,64:10
84,65:8
84,66:7
84,67:10
84,68:2
84,69:2
84,70:2
84,71:5
84,72:2
84,73:5
84,74:5
84,75:2
84,76:5
84,77:2
84,78:2
84,79:2
84,85:11

<end>

<optimal SALBP-1 value>
15


<rand seed>
467321153

<Lower Bounds>
Lm1=15
Lms1=15
Lm2=3
Lm3=5
Lm4=15
Best=15

<Optimal Stations (Iterations: 10)>
19
